benchmark/results/graph__10-1000-0.10-03_14/graph__10-1000-0.10-03_14_Quinton_Benders_primal_sub.lp
\ This file has been generated by DOcplex
\ ENCODING=ISO-8859-1
\Problem name: Quinton Benders_primal_sub

Maximize
 obj: tau
Subject To
 c1: tau <= 0.003134796238
 c2: y_a0_proc_0 + y_a0_proc_1 + y_a0_proc_2 - tau = 0
 c3: y_a0_proc_0 <= 1
 c4: y_a0_proc_1 <= 0
 c5: y_a0_proc_2 <= 0
 c6: tau <= 0.001172332943
 c7: y_a1_proc_0 + y_a1_proc_2 - tau = 0
 c8: y_a1_proc_0 <= 1
 c9: y_a1_proc_2 <= 0
 c10: tau <= 0.001438848921
 c11: y_a2_proc_0 + y_a2_proc_1 + y_a2_proc_2 - tau = 0
 c12: y_a2_proc_0 <= 1
 c13: y_a2_proc_1 <= 0
 c14: y_a2_proc_2 <= 0
 c15: tau <= 0.001776198934
 c16: y_a3_proc_0 + y_a3_proc_1 - tau = 0
 c17: y_a3_proc_0 <= 0
 c18: y_a3_proc_1 <= 1
 c19: tau <= 0.001203369434
 c20: y_a4_proc_0 + y_a4_proc_1 + y_a4_proc_2 - tau = 0
 c21: y_a4_proc_0 <= 0
 c22: y_a4_proc_1 <= 0
 c23: y_a4_proc_2 <= 1
 c24: tau <= 0.001388888889
 c25: y_a5_proc_0 + y_a5_proc_1 - tau = 0
 c26: y_a5_proc_0 <= 0
 c27: y_a5_proc_1 <= 1
 c28: tau <= 0.001540832049
 c29: y_a6_proc_2 - tau = 0
 c30: y_a6_proc_2 <= 1
 c31: tau <= 0.001694915254
 c32: y_a7_proc_0 + y_a7_proc_1 + y_a7_proc_2 - tau = 0
 c33: y_a7_proc_0 <= 0
 c34: y_a7_proc_1 <= 1
 c35: y_a7_proc_2 <= 0
 c36: tau <= 0.001879699248
 c37: y_a8_proc_1 - tau = 0
 c38: y_a8_proc_1 <= 1
 c39: tau <= 0.001206272618
 c40: y_a9_proc_0 + y_a9_proc_1 + y_a9_proc_2 - tau = 0
 c41: y_a9_proc_0 <= 1
 c42: y_a9_proc_1 <= 0
 c43: y_a9_proc_2 <= 0
 c44: u_a0 - u_a1 - 853 y_a1_proc_0 - 1022 y_a1_proc_2 >= 0
 c45: u_a2 - u_a0 - 319 y_a0_proc_0 - 873 y_a0_proc_1 - 432 y_a0_proc_2 >= -1
 c46: u_a0 - u_a3 - 724 y_a3_proc_0 - 563 y_a3_proc_1 >= 0
 c47: u_a4 - u_a3 - 724 y_a3_proc_0 - 563 y_a3_proc_1 >= 0
 c48: u_a2 - u_a5 - 767 y_a5_proc_0 - 720 y_a5_proc_1 >= -1
 c49: u_a6 - u_a2 - 695 y_a2_proc_0 - 1168 y_a2_proc_1 - 1108 y_a2_proc_2 >= 0
 c50: u_a5 - u_a7 - 1009 y_a7_proc_0 - 590 y_a7_proc_1 - 512 y_a7_proc_2 >= 0
 c51: u_a3 - u_a8 - 532 y_a8_proc_1 >= 0
 c52: u_a5 - u_a9 - 829 y_a9_proc_0 - 1241 y_a9_proc_1 - 1204 y_a9_proc_2 >= 0
 c53: u_a9 - u_a0 - 319 y_a0_proc_0 - 873 y_a0_proc_1 - 432 y_a0_proc_2 >= 0
 c54: u_a8 - u_a6 - 649 y_a6_proc_2 >= 0
 c55: u_a4 - u_a6 - 649 y_a6_proc_2 >= 0
 c56: u_a3 - u_a9 - 829 y_a9_proc_0 - 1241 y_a9_proc_1 - 1204 y_a9_proc_2 >= -1
 c57: - 829 y_a9_proc_0 - 1241 y_a9_proc_1 - 1204 y_a9_proc_2 >= -1
 c58: u_a7 - u_a2 - 695 y_a2_proc_0 - 1168 y_a2_proc_1 - 1108 y_a2_proc_2 >= 0
 c59: - 853 y_a1_proc_0 - 1022 y_a1_proc_2 >= -1
 c60: u_a1 - u_a0 - 432 y_a0_proc_2 >= -2483
 c61: u_a1 - u_a0 - 319 y_a0_proc_0 >= -1
 c62: u_a0 - u_a1 - 1022 y_a1_proc_2 >= -2482
 c63: u_a0 - u_a1 - 853 y_a1_proc_0 >= 0
 c64: u_a2 - u_a0 - 432 y_a0_proc_2 >= -2483
 c65: u_a2 - u_a0 - 873 y_a0_proc_1 >= -2483
 c66: u_a2 - u_a0 - 319 y_a0_proc_0 >= -1
 c67: u_a0 - u_a2 - 1108 y_a2_proc_2 >= -2482
 c68: u_a0 - u_a2 - 1168 y_a2_proc_1 >= -2482
 c69: u_a0 - u_a2 - 695 y_a2_proc_0 >= 0
 c70: u_a3 - u_a0 - 873 y_a0_proc_1 >= -2482
 c71: u_a3 - u_a0 - 319 y_a0_proc_0 >= -2482
 c72: u_a0 - u_a3 - 563 y_a3_proc_1 >= -1
 c73: u_a0 - u_a3 - 724 y_a3_proc_0 >= -1
 c74: u_a4 - u_a0 - 432 y_a0_proc_2 >= -2482
 c75: u_a4 - u_a0 - 873 y_a0_proc_1 >= -3723
 c76: u_a4 - u_a0 - 319 y_a0_proc_0 >= -2482
 c77: u_a0 - u_a4 - 831 y_a4_proc_2 >= -1
 c78: u_a0 - u_a4 - 1032 y_a4_proc_1 >= -1242
 c79: u_a0 - u_a4 - 1050 y_a4_proc_0 >= -1
 c80: u_a5 - u_a0 - 873 y_a0_proc_1 >= -2482
 c81: u_a5 - u_a0 - 319 y_a0_proc_0 >= -2482
 c82: u_a0 - u_a5 - 720 y_a5_proc_1 >= -1
 c83: u_a0 - u_a5 - 767 y_a5_proc_0 >= -1
 c84: u_a6 - u_a0 - 432 y_a0_proc_2 >= -2483
 c85: u_a0 - u_a6 - 649 y_a6_proc_2 >= 0
 c86: u_a7 - u_a0 - 432 y_a0_proc_2 >= -3724
 c87: u_a7 - u_a0 - 873 y_a0_proc_1 >= -2483
 c88: u_a7 - u_a0 - 319 y_a0_proc_0 >= -2483
 c89: u_a0 - u_a7 - 512 y_a7_proc_2 >= -1241
 c90: u_a0 - u_a7 - 590 y_a7_proc_1 >= 0
 c91: u_a0 - u_a7 - 1009 y_a7_proc_0 >= 0
 c92: u_a8 - u_a0 - 873 y_a0_proc_1 >= -2483
 c93: u_a0 - u_a8 - 532 y_a8_proc_1 >= 0
 c94: u_a9 - u_a0 - 432 y_a0_proc_2 >= -2482
 c95: u_a9 - u_a0 - 873 y_a0_proc_1 >= -2482
 c96: u_a9 - u_a0 - 319 y_a0_proc_0 >= 0
 c97: u_a0 - u_a9 - 1204 y_a9_proc_2 >= -2483
 c98: u_a0 - u_a9 - 1241 y_a9_proc_1 >= -2483
 c99: u_a0 - u_a9 - 829 y_a9_proc_0 >= -1
 c100: u_a2 - u_a1 - 1022 y_a1_proc_2 >= -2483
 c101: u_a2 - u_a1 - 853 y_a1_proc_0 >= -1
 c102: u_a1 - u_a2 - 1108 y_a2_proc_2 >= -2482
 c103: u_a1 - u_a2 - 695 y_a2_proc_0 >= 0
 c104: u_a3 - u_a1 - 853 y_a1_proc_0 >= -2482
 c105: u_a1 - u_a3 - 724 y_a3_proc_0 >= -1
 c106: u_a4 - u_a1 - 1022 y_a1_proc_2 >= -2482
 c107: u_a4 - u_a1 - 853 y_a1_proc_0 >= -2482
 c108: u_a1 - u_a4 - 831 y_a4_proc_2 >= -1
 c109: u_a1 - u_a4 - 1050 y_a4_proc_0 >= -1
 c110: u_a5 - u_a1 - 853 y_a1_proc_0 >= -2482
 c111: u_a1 - u_a5 - 767 y_a5_proc_0 >= -1
 c112: u_a6 - u_a1 - 1022 y_a1_proc_2 >= -1
 c113: u_a1 - u_a6 - 649 y_a6_proc_2 >= -2482
 c114: u_a7 - u_a1 - 1022 y_a1_proc_2 >= -3723
 c115: u_a7 - u_a1 - 853 y_a1_proc_0 >= -2482
 c116: u_a1 - u_a7 - 512 y_a7_proc_2 >= -1242
 c117: u_a1 - u_a7 - 1009 y_a7_proc_0 >= -1
 c118: u_a9 - u_a1 - 1022 y_a1_proc_2 >= -2482
 c119: u_a9 - u_a1 - 853 y_a1_proc_0 >= 0
 c120: u_a1 - u_a9 - 1204 y_a9_proc_2 >= -2483
 c121: u_a1 - u_a9 - 829 y_a9_proc_0 >= -1
 c122: u_a3 - u_a2 - 1168 y_a2_proc_1 >= -2482
 c123: u_a3 - u_a2 - 695 y_a2_proc_0 >= -2482
 c124: u_a2 - u_a3 - 563 y_a3_proc_1 >= -1
 c125: u_a2 - u_a3 - 724 y_a3_proc_0 >= -1
 c126: u_a4 - u_a2 - 1108 y_a2_proc_2 >= -1242
 c127: u_a4 - u_a2 - 1168 y_a2_proc_1 >= -2483
 c128: u_a4 - u_a2 - 695 y_a2_proc_0 >= -1242
 c129: u_a2 - u_a4 - 831 y_a4_proc_2 >= -1241
 c130: u_a2 - u_a4 - 1032 y_a4_proc_1 >= -2482
 c131: u_a2 - u_a4 - 1050 y_a4_proc_0 >= -1241
 c132: u_a5 - u_a2 - 1168 y_a2_proc_1 >= -2482
 c133: u_a5 - u_a2 - 695 y_a2_proc_0 >= -2482
 c134: u_a2 - u_a5 - 720 y_a5_proc_1 >= -1
 c135: u_a2 - u_a5 - 767 y_a5_proc_0 >= -1
 c136: u_a6 - u_a2 - 1108 y_a2_proc_2 >= -2482
 c137: u_a2 - u_a6 - 649 y_a6_proc_2 >= -1
 c138: u_a7 - u_a2 - 1108 y_a2_proc_2 >= -3723
 c139: u_a7 - u_a2 - 1168 y_a2_proc_1 >= -2482
 c140: u_a7 - u_a2 - 695 y_a2_proc_0 >= -2482
 c141: u_a2 - u_a7 - 512 y_a7_proc_2 >= -1242
 c142: u_a2 - u_a7 - 590 y_a7_proc_1 >= -1
 c143: u_a2 - u_a7 - 1009 y_a7_proc_0 >= -1
 c144: u_a8 - u_a2 - 1168 y_a2_proc_1 >= -2482
 c145: u_a2 - u_a8 - 532 y_a8_proc_1 >= -1
 c146: u_a9 - u_a2 - 1108 y_a2_proc_2 >= -2482
 c147: u_a9 - u_a2 - 1168 y_a2_proc_1 >= -2482
 c148: u_a9 - u_a2 - 695 y_a2_proc_0 >= 0
 c149: u_a2 - u_a9 - 1204 y_a9_proc_2 >= -2483
 c150: u_a2 - u_a9 - 1241 y_a9_proc_1 >= -2483
 c151: u_a2 - u_a9 - 829 y_a9_proc_0 >= -1
 c152: u_a4 - u_a3 - 563 y_a3_proc_1 >= -1
 c153: u_a4 - u_a3 - 724 y_a3_proc_0 >= -1242
 c154: u_a3 - u_a4 - 1032 y_a4_proc_1 >= -2482
 c155: u_a3 - u_a4 - 1050 y_a4_proc_0 >= -3723
 c156: u_a5 - u_a3 - 563 y_a3_proc_1 >= 0
 c157: u_a5 - u_a3 - 724 y_a3_proc_0 >= -2482
 c158: u_a3 - u_a5 - 720 y_a5_proc_1 >= -1
 c159: u_a3 - u_a5 - 767 y_a5_proc_0 >= -2483
 c160: u_a7 - u_a3 - 563 y_a3_proc_1 >= -1
 c161: u_a7 - u_a3 - 724 y_a3_proc_0 >= -2483
 c162: u_a3 - u_a7 - 590 y_a7_proc_1 >= 0
 c163: u_a3 - u_a7 - 1009 y_a7_proc_0 >= -2482
 c164: u_a8 - u_a3 - 563 y_a3_proc_1 >= -1
 c165: u_a3 - u_a8 - 532 y_a8_proc_1 >= 0
 c166: u_a9 - u_a3 - 563 y_a3_proc_1 >= -2482
 c167: u_a9 - u_a3 - 724 y_a3_proc_0 >= -2482
 c168: u_a3 - u_a9 - 1241 y_a9_proc_1 >= -1
 c169: u_a3 - u_a9 - 829 y_a9_proc_0 >= -1
 c170: u_a5 - u_a4 - 1032 y_a4_proc_1 >= -2482
 c171: u_a5 - u_a4 - 1050 y_a4_proc_0 >= -3723
 c172: u_a4 - u_a5 - 720 y_a5_proc_1 >= -1
 c173: u_a4 - u_a5 - 767 y_a5_proc_0 >= -1242
 c174: u_a6 - u_a4 - 831 y_a4_proc_2 >= -1
 c175: u_a4 - u_a6 - 649 y_a6_proc_2 >= 0
 c176: u_a7 - u_a4 - 831 y_a4_proc_2 >= -2483
 c177: u_a7 - u_a4 - 1032 y_a4_proc_1 >= -2483
 c178: u_a7 - u_a4 - 1050 y_a4_proc_0 >= -3724
 c179: u_a4 - u_a7 - 512 y_a7_proc_2 >= 0
 c180: u_a4 - u_a7 - 590 y_a7_proc_1 >= 0
 c181: u_a4 - u_a7 - 1009 y_a7_proc_0 >= -1241
 c182: u_a8 - u_a4 - 1032 y_a4_proc_1 >= -2483
 c183: u_a4 - u_a8 - 532 y_a8_proc_1 >= 0
 c184: u_a9 - u_a4 - 831 y_a4_proc_2 >= -1
 c185: u_a9 - u_a4 - 1032 y_a4_proc_1 >= -1242
 c186: u_a9 - u_a4 - 1050 y_a4_proc_0 >= -1
 c187: u_a4 - u_a9 - 1204 y_a9_proc_2 >= -2482
 c188: u_a4 - u_a9 - 1241 y_a9_proc_1 >= -3723
 c189: u_a4 - u_a9 - 829 y_a9_proc_0 >= -2482
 c190: u_a7 - u_a5 - 720 y_a5_proc_1 >= -1
 c191: u_a7 - u_a5 - 767 y_a5_proc_0 >= -2483
 c192: u_a5 - u_a7 - 590 y_a7_proc_1 >= 0
 c193: u_a5 - u_a7 - 1009 y_a7_proc_0 >= -2482
 c194: u_a8 - u_a5 - 720 y_a5_proc_1 >= -1
 c195: u_a5 - u_a8 - 532 y_a8_proc_1 >= 0
 c196: u_a9 - u_a5 - 720 y_a5_proc_1 >= -2482
 c197: u_a9 - u_a5 - 767 y_a5_proc_0 >= -2482
 c198: u_a5 - u_a9 - 1241 y_a9_proc_1 >= -1
 c199: u_a5 - u_a9 - 829 y_a9_proc_0 >= -1
 c200: u_a7 - u_a6 - 649 y_a6_proc_2 >= -2482
 c201: u_a6 - u_a7 - 512 y_a7_proc_2 >= -1
 c202: u_a9 - u_a6 - 649 y_a6_proc_2 >= -2482
 c203: u_a6 - u_a9 - 1204 y_a9_proc_2 >= -1
 c204: u_a8 - u_a7 - 590 y_a7_proc_1 >= 0
 c205: u_a7 - u_a8 - 532 y_a8_proc_1 >= -1
 c206: u_a9 - u_a7 - 512 y_a7_proc_2 >= -3723
 c207: u_a9 - u_a7 - 590 y_a7_proc_1 >= -2482
 c208: u_a9 - u_a7 - 1009 y_a7_proc_0 >= -2482
 c209: u_a7 - u_a9 - 1204 y_a9_proc_2 >= -1242
 c210: u_a7 - u_a9 - 1241 y_a9_proc_1 >= -1
 c211: u_a7 - u_a9 - 829 y_a9_proc_0 >= -1
 c212: u_a9 - u_a8 - 532 y_a8_proc_1 >= -2482
 c213: u_a8 - u_a9 - 1241 y_a9_proc_1 >= -1

Bounds
End
