benchmark/results/graph__10-1000-0.10-03_14/graph__10-1000-0.10-03_14_Quinton_Benders_primal_sub.txt
solution for: Quinton Benders_primal_sub
objective: 0.00023218
status: OPTIMAL_SOLUTION(2)
u_a0=0.566
u_a1=0.161
u_a3=0.436
u_a4=0.566
u_a5=0.833
u_a6=0.161
u_a7=0.161
u_a8=0.312
u_a9=0.640
tau=0.000
y_a0_proc_0=0.000
y_a1_proc_0=0.000
y_a2_proc_0=0.000
y_a3_proc_1=0.000
y_a4_proc_2=0.000
y_a5_proc_1=0.000
y_a6_proc_2=0.000
y_a7_proc_1=0.000
y_a8_proc_1=0.000
y_a9_proc_0=0.000
